p edge 105
e 0 22
e 0 50
e 0 62
e 0 73
e 0 104
e 1 2
e 1 49
e 1 53
e 1 67
e 1 75
e 1 83
e 1 97
e 2 71
e 2 72
e 2 80
e 2 97
e 3 52
e 3 57
e 3 59
e 3 67
e 3 68
e 3 75
e 4 5
e 4 34
e 4 42
e 4 76
e 4 86
e 5 28
e 5 30
e 5 42
e 5 65
e 5 76
e 6 10
e 6 24
e 6 27
e 6 29
e 6 37
e 7 48
e 7 55
e 7 66
e 7 87
e 7 94
e 7 100
e 8 49
e 8 51
e 8 74
e 8 84
e 8 87
e 8 94
e 9 20
e 9 32
e 9 33
e 9 48
e 9 54
e 9 55
e 9 82
e 10 11
e 10 12
e 10 15
e 10 27
e 11 12
e 11 13
e 11 15
e 13 14
e 13 21
e 14 38
e 14 69
e 15 21
e 15 27
e 15 30
e 15 31
e 16 53
e 16 68
e 16 98
e 17 18
e 17 19
e 17 28
e 17 39
e 17 61
e 17 70
e 18 28
e 18 29
e 18 31
e 18 63
e 18 70
e 19 28
e 19 39
e 19 42
e 19 56
e 20 26
e 20 32
e 20 48
e 20 66
e 20 86
e 21 30
e 21 65
e 21 69
e 22 23
e 22 91
e 22 104
e 23 38
e 23 91
e 23 104
e 24 37
e 25 26
e 25 39
e 25 40
e 25 56
e 25 93
e 25 96
e 26 40
e 26 56
e 26 66
e 27 29
e 27 31
e 28 30
e 28 31
e 28 42
e 29 31
e 29 37
e 29 63
e 30 31
e 30 65
e 32 33
e 32 34
e 32 86
e 33 34
e 33 35
e 33 54
e 34 36
e 34 62
e 34 76
e 34 86
e 35 36
e 35 54
e 35 60
e 36 62
e 36 73
e 37 63
e 38 90
e 38 104
e 39 56
e 39 61
e 39 93
e 40 51
e 40 66
e 40 94
e 40 96
e 41 51
e 41 74
e 41 79
e 41 95
e 42 56
e 42 86
e 43 54
e 43 59
e 43 60
e 43 82
e 43 99
e 44 47
e 44 71
e 44 81
e 44 89
e 44 97
e 44 103
e 45 50
e 45 65
e 45 76
e 45 90
e 46 47
e 46 78
e 46 89
e 46 92
e 47 58
e 47 78
e 47 89
e 47 103
e 48 55
e 48 66
e 49 67
e 49 83
e 49 84
e 49 87
e 49 100
e 49 103
e 50 62
e 50 76
e 50 104
e 51 74
e 51 94
e 51 95
e 51 96
e 52 59
e 52 68
e 52 99
e 53 68
e 53 72
e 53 75
e 53 98
e 54 60
e 54 82
e 55 57
e 55 82
e 55 100
e 56 86
e 57 59
e 57 67
e 57 82
e 57 100
e 58 64
e 58 78
e 58 101
e 58 103
e 59 82
e 59 99
e 61 70
e 61 77
e 61 93
e 62 73
e 62 76
e 63 70
e 64 78
e 64 79
e 64 101
e 65 69
e 65 76
e 66 94
e 67 75
e 67 100
e 68 75
e 69 90
e 71 80
e 71 81
e 71 85
e 71 97
e 72 88
e 72 98
e 74 79
e 74 84
e 74 101
e 77 93
e 77 95
e 79 101
e 80 85
e 80 88
e 81 85
e 81 89
e 83 97
e 83 103
e 84 101
e 84 103
e 87 94
e 87 100
e 88 98
e 88 102
e 89 92
e 90 104
e 93 95
e 93 96
e 95 96
e 97 103
e 98 102
e 101 103
c k 4
